0	84	80	138	95	79	58	127	52	55	147	
94	0	48	61	187	130	199	145	102	41	75	
91	108	0	176	73	181	119	74	112	45	176	
192	117	49	0	119	193	88	187	190	139	78	
74	137	20	46	0	189	192	23	132	36	131	
164	104	45	70	153	0	193	60	29	71	146	
120	41	93	65	110	146	0	55	112	191	180	
59	52	141	141	77	161	103	0	90	54	58	
99	188	149	35	143	36	42	132	0	87	64	
111	54	48	31	149	56	167	120	121	0	97	
115	96	131	111	27	105	38	170	126	66	0	
